; benchmark generated from python API
(set-info :status unknown)
(declare-datatypes ((Proc 0)) (((withdraw) (Bank) (deposit) (coinbase))))
 (declare-fun w_0 () Int)
(declare-fun myBalances_1_2 () Int)
(declare-fun myBalances_0_2 () Int)
(declare-fun myBalances_1_1 () Int)
(declare-fun myBalances_0_1 () Int)
(declare-fun myBalances_1_0 () Int)
(declare-fun myBalances_0_0 () Int)
(declare-fun aw_0_2 () Int)
(declare-fun aw_1_2 () Int)
(declare-fun aw_0_1 () Int)
(declare-fun aw_1_1 () Int)
(declare-fun aw_0_0 () Int)
(declare-fun aw_1_0 () Int)
(declare-fun w_1 () Int)
(declare-fun xn_0 () Int)
(declare-fun xa_0 () Int)
(declare-fun myBalances_2_2 () Int)
(declare-fun myBalances_2_1 () Int)
(declare-fun myBalances_2_0 () Int)
(declare-fun aw_2_2 () Int)
(declare-fun aw_2_1 () Int)
(declare-fun aw_2_0 () Int)
(declare-fun t_w_1_0 () Int)
(declare-fun w_2 () Int)
(declare-fun xn_1 () Int)
(declare-fun t_myBalances_1_0_2 () Int)
(declare-fun t_myBalances_1_0_1 () Int)
(declare-fun t_myBalances_1_0_0 () Int)
(declare-fun t_aw_1_0_2 () Int)
(declare-fun t_aw_1_0_1 () Int)
(declare-fun t_aw_1_0_0 () Int)
(declare-fun withdraw_amount_1 () Int)
(declare-fun xa_1 () Int)
(declare-fun f_1 () Proc)
(declare-fun block_num_1 () Int)
(declare-fun block_num_2 () Int)
(declare-fun myBalances_3_2 () Int)
(declare-fun myBalances_3_1 () Int)
(declare-fun myBalances_3_0 () Int)
(declare-fun aw_3_2 () Int)
(declare-fun aw_3_1 () Int)
(declare-fun aw_3_0 () Int)
(declare-fun t_w_2_0 () Int)
(declare-fun w_3 () Int)
(declare-fun xn_2 () Int)
(declare-fun t_myBalances_2_0_2 () Int)
(declare-fun t_myBalances_2_0_1 () Int)
(declare-fun t_myBalances_2_0_0 () Int)
(declare-fun t_aw_2_0_2 () Int)
(declare-fun t_aw_2_0_1 () Int)
(declare-fun t_aw_2_0_0 () Int)
(declare-fun withdraw_amount_2 () Int)
(declare-fun xa_2 () Int)
(declare-fun f_2 () Proc)
(declare-fun block_num_3 () Int)
(declare-fun myBalances_4_2 () Int)
(declare-fun myBalances_4_1 () Int)
(declare-fun myBalances_4_0 () Int)
(declare-fun aw_4_2 () Int)
(declare-fun aw_4_1 () Int)
(declare-fun aw_4_0 () Int)
(declare-fun t_w_3_0 () Int)
(declare-fun w_4 () Int)
(declare-fun xn_3 () Int)
(declare-fun t_myBalances_3_0_2 () Int)
(declare-fun t_myBalances_3_0_1 () Int)
(declare-fun t_myBalances_3_0_0 () Int)
(declare-fun t_aw_3_0_2 () Int)
(declare-fun t_aw_3_0_1 () Int)
(declare-fun t_aw_3_0_0 () Int)
(declare-fun withdraw_amount_3 () Int)
(declare-fun xa_3 () Int)
(declare-fun f_3 () Proc)
(declare-fun block_num_4 () Int)
(declare-fun myBalances_5_2 () Int)
(declare-fun myBalances_5_1 () Int)
(declare-fun myBalances_5_0 () Int)
(declare-fun aw_5_2 () Int)
(declare-fun aw_5_1 () Int)
(declare-fun aw_5_0 () Int)
(declare-fun t_w_4_0 () Int)
(declare-fun w_5 () Int)
(declare-fun xn_4 () Int)
(declare-fun t_myBalances_4_0_2 () Int)
(declare-fun t_myBalances_4_0_1 () Int)
(declare-fun t_myBalances_4_0_0 () Int)
(declare-fun t_aw_4_0_2 () Int)
(declare-fun t_aw_4_0_1 () Int)
(declare-fun t_aw_4_0_0 () Int)
(declare-fun withdraw_amount_4 () Int)
(declare-fun xa_4 () Int)
(declare-fun f_4 () Proc)
(declare-fun block_num_5 () Int)
(declare-fun myBalances_6_2 () Int)
(declare-fun myBalances_6_1 () Int)
(declare-fun myBalances_6_0 () Int)
(declare-fun aw_6_2 () Int)
(declare-fun aw_6_1 () Int)
(declare-fun aw_6_0 () Int)
(declare-fun t_w_5_0 () Int)
(declare-fun w_6 () Int)
(declare-fun xn_5 () Int)
(declare-fun t_myBalances_5_0_2 () Int)
(declare-fun t_myBalances_5_0_1 () Int)
(declare-fun t_myBalances_5_0_0 () Int)
(declare-fun t_aw_5_0_2 () Int)
(declare-fun t_aw_5_0_1 () Int)
(declare-fun t_aw_5_0_0 () Int)
(declare-fun withdraw_amount_5 () Int)
(declare-fun xa_5 () Int)
(declare-fun f_5 () Proc)
(declare-fun block_num_6 () Int)
(declare-fun myBalances_7_2 () Int)
(declare-fun myBalances_7_1 () Int)
(declare-fun myBalances_7_0 () Int)
(declare-fun aw_7_2 () Int)
(declare-fun aw_7_1 () Int)
(declare-fun aw_7_0 () Int)
(declare-fun t_w_6_0 () Int)
(declare-fun w_7 () Int)
(declare-fun xn_6 () Int)
(declare-fun t_myBalances_6_0_2 () Int)
(declare-fun t_myBalances_6_0_1 () Int)
(declare-fun t_myBalances_6_0_0 () Int)
(declare-fun t_aw_6_0_2 () Int)
(declare-fun t_aw_6_0_1 () Int)
(declare-fun t_aw_6_0_0 () Int)
(declare-fun withdraw_amount_6 () Int)
(declare-fun xa_6 () Int)
(declare-fun f_6 () Proc)
(declare-fun block_num_7 () Int)
(declare-fun myBalances_8_2 () Int)
(declare-fun myBalances_8_1 () Int)
(declare-fun myBalances_8_0 () Int)
(declare-fun aw_8_2 () Int)
(declare-fun aw_8_1 () Int)
(declare-fun aw_8_0 () Int)
(declare-fun t_w_7_0 () Int)
(declare-fun w_8 () Int)
(declare-fun xn_7 () Int)
(declare-fun t_myBalances_7_0_2 () Int)
(declare-fun t_myBalances_7_0_1 () Int)
(declare-fun t_myBalances_7_0_0 () Int)
(declare-fun t_aw_7_0_2 () Int)
(declare-fun t_aw_7_0_1 () Int)
(declare-fun t_aw_7_0_0 () Int)
(declare-fun withdraw_amount_7 () Int)
(declare-fun xa_7 () Int)
(declare-fun f_7 () Proc)
(declare-fun block_num_8 () Int)
(declare-fun myBalances_9_2 () Int)
(declare-fun myBalances_9_1 () Int)
(declare-fun myBalances_9_0 () Int)
(declare-fun aw_9_2 () Int)
(declare-fun aw_9_1 () Int)
(declare-fun aw_9_0 () Int)
(declare-fun t_w_8_0 () Int)
(declare-fun w_9 () Int)
(declare-fun xn_8 () Int)
(declare-fun t_myBalances_8_0_2 () Int)
(declare-fun t_myBalances_8_0_1 () Int)
(declare-fun t_myBalances_8_0_0 () Int)
(declare-fun t_aw_8_0_2 () Int)
(declare-fun t_aw_8_0_1 () Int)
(declare-fun t_aw_8_0_0 () Int)
(declare-fun withdraw_amount_8 () Int)
(declare-fun xa_8 () Int)
(declare-fun f_8 () Proc)
(declare-fun block_num_9 () Int)
(declare-fun myBalances_10_2 () Int)
(declare-fun myBalances_10_1 () Int)
(declare-fun myBalances_10_0 () Int)
(declare-fun aw_10_2 () Int)
(declare-fun aw_10_1 () Int)
(declare-fun aw_10_0 () Int)
(declare-fun t_w_9_0 () Int)
(declare-fun w_10 () Int)
(declare-fun xn_9 () Int)
(declare-fun t_myBalances_9_0_2 () Int)
(declare-fun t_myBalances_9_0_1 () Int)
(declare-fun t_myBalances_9_0_0 () Int)
(declare-fun t_aw_9_0_2 () Int)
(declare-fun t_aw_9_0_1 () Int)
(declare-fun t_aw_9_0_0 () Int)
(declare-fun withdraw_amount_9 () Int)
(declare-fun xa_9 () Int)
(declare-fun f_9 () Proc)
(declare-fun block_num_10 () Int)
(assert
 (>= w_0 0))
(assert
 (let (($x272 (= myBalances_0_2 myBalances_1_2)))
 (let (($x271 (= myBalances_0_1 myBalances_1_1)))
 (let (($x270 (= myBalances_0_0 myBalances_1_0)))
 (let (($x268 (= aw_1_2 aw_0_2)))
 (let (($x267 (= aw_1_1 aw_0_1)))
 (let (($x266 (= aw_1_0 aw_0_0)))
 (let (($x265 (= w_1 w_0)))
 (and (and (>= xa_0 0) (<= xa_0 2) (>= xn_0 0)) (and (>= aw_0_0 0) (>= aw_0_1 0) (>= aw_0_2 0)) (and $x265 (and $x266 $x267 $x268) (and $x270 $x271 $x272)))))))))))
(assert
 (let (($x331 (= myBalances_1_2 myBalances_2_2)))
 (let (($x330 (= myBalances_1_1 myBalances_2_1)))
 (let (($x329 (= myBalances_1_0 myBalances_2_0)))
 (let (($x332 (and $x329 $x330 $x331)))
 (let (($x316 (= aw_2_2 aw_1_2)))
 (let (($x315 (= aw_2_1 aw_1_1)))
 (let (($x314 (= aw_2_0 aw_1_0)))
 (let (($x317 (and $x314 $x315 $x316)))
 (let (($x313 (= w_2 t_w_1_0)))
 (let (($x287 (= t_w_1_0 (+ w_1 xn_1))))
 (let (($x320 (= t_myBalances_1_0_2 myBalances_2_2)))
 (let (($x319 (= t_myBalances_1_0_1 myBalances_2_1)))
 (let (($x318 (= t_myBalances_1_0_0 myBalances_2_0)))
 (let (($x321 (and $x318 $x319 $x320)))
 (let (($x375 (= aw_2_2 t_aw_1_0_2)))
 (let (($x374 (= aw_2_1 t_aw_1_0_1)))
 (let (($x373 (= aw_2_0 t_aw_1_0_0)))
 (let (($x377 (and $x313 (and $x373 $x374 $x375) $x321)))
 (let (($x369 (= t_aw_1_0_2 aw_1_2)))
 (let (($x308 (= xa_1 2)))
 (let (($x365 (= t_aw_1_0_1 aw_1_1)))
 (let (($x305 (= xa_1 1)))
 (let (($x361 (= t_aw_1_0_0 aw_1_0)))
 (let (($x302 (= xa_1 0)))
 (let (($x371 (and (ite $x302 (= t_aw_1_0_0 (+ aw_1_0 withdraw_amount_1)) $x361) (ite $x305 (= t_aw_1_0_1 (+ aw_1_1 withdraw_amount_1)) $x365) (ite $x308 (= t_aw_1_0_2 (+ aw_1_2 withdraw_amount_1)) $x369))))
 (let (($x378 (and (and (= t_w_1_0 (- w_1 withdraw_amount_1)) $x371) true $x377)))
 (let (($x328 (= w_2 w_1)))
 (let (($x333 (and $x328 $x317 $x332)))
 (let (($x310 (or $x308 (= t_myBalances_1_0_2 myBalances_1_2))))
 (let (($x307 (or $x305 (= t_myBalances_1_0_1 myBalances_1_1))))
 (let (($x304 (or $x302 (= t_myBalances_1_0_0 myBalances_1_0))))
 (let (($x311 (and $x304 $x307 $x310)))
 (let (($x297 (and (distinct xa_1 2) true)))
 (let (($x352 (or $x297 (= t_myBalances_1_0_2 (- myBalances_1_2 withdraw_amount_1)))))
 (let (($x293 (and (distinct xa_1 1) true)))
 (let (($x349 (or $x293 (= t_myBalances_1_0_1 (- myBalances_1_1 withdraw_amount_1)))))
 (let (($x288 (and (distinct xa_1 0) true)))
 (let (($x346 (or $x288 (= t_myBalances_1_0_0 (- myBalances_1_0 withdraw_amount_1)))))
 (let (($x380 (and (and (and $x346 $x349 $x352) $x311) (ite (not (>= withdraw_amount_1 0)) $x333 $x378))))
 (let (($x342 (and (or $x288 (<= withdraw_amount_1 myBalances_1_0)) (or $x293 (<= withdraw_amount_1 myBalances_1_1)) (or $x297 (<= withdraw_amount_1 myBalances_1_2)))))
 (let (($x385 (and (and (ite (not $x342) $x333 (and (and $x380 true $x377))) true $x377))))
 (let (($x388 (ite (not (= xn_1 0)) $x333 (and (ite (not (> withdraw_amount_1 0)) $x333 $x385)))))
 (let (($x325 (= f_1 withdraw)))
 (let (($x301 (and (or $x288 (= t_myBalances_1_0_0 (+ myBalances_1_0 xn_1))) (or $x293 (= t_myBalances_1_0_1 (+ myBalances_1_1 xn_1))) (or $x297 (= t_myBalances_1_0_2 (+ myBalances_1_2 xn_1))))))
 (let (($x285 (= f_1 deposit)))
 (let (($x392 (ite $x285 (and $x287 (and (and $x301 $x311) true (and $x313 $x317 $x321))) (ite $x325 $x388 (and $x287 (and $x313 $x317 $x332))))))
 (let (($x282 (>= aw_1_2 0)))
 (let (($x281 (>= aw_1_1 0)))
 (let (($x280 (>= aw_1_0 0)))
 (let (($x283 (and $x280 $x281 $x282)))
 (and (and (>= xa_1 0) (<= xa_1 2) (>= xn_1 0)) $x283 (>= block_num_2 block_num_1) $x392))))))))))))))))))))))))))))))))))))))))))))))))))))
(assert
 (let (($x520 (= myBalances_2_2 myBalances_3_2)))
 (let (($x519 (= myBalances_2_1 myBalances_3_1)))
 (let (($x518 (= myBalances_2_0 myBalances_3_0)))
 (let (($x521 (and $x518 $x519 $x520)))
 (let (($x505 (= aw_3_2 aw_2_2)))
 (let (($x504 (= aw_3_1 aw_2_1)))
 (let (($x503 (= aw_3_0 aw_2_0)))
 (let (($x506 (and $x503 $x504 $x505)))
 (let (($x502 (= w_3 t_w_2_0)))
 (let (($x477 (= t_w_2_0 (+ w_2 xn_2))))
 (let (($x509 (= t_myBalances_2_0_2 myBalances_3_2)))
 (let (($x508 (= t_myBalances_2_0_1 myBalances_3_1)))
 (let (($x507 (= t_myBalances_2_0_0 myBalances_3_0)))
 (let (($x510 (and $x507 $x508 $x509)))
 (let (($x564 (= aw_3_2 t_aw_2_0_2)))
 (let (($x563 (= aw_3_1 t_aw_2_0_1)))
 (let (($x562 (= aw_3_0 t_aw_2_0_0)))
 (let (($x566 (and $x502 (and $x562 $x563 $x564) $x510)))
 (let (($x558 (= t_aw_2_0_2 aw_2_2)))
 (let (($x497 (= xa_2 2)))
 (let (($x554 (= t_aw_2_0_1 aw_2_1)))
 (let (($x494 (= xa_2 1)))
 (let (($x550 (= t_aw_2_0_0 aw_2_0)))
 (let (($x491 (= xa_2 0)))
 (let (($x560 (and (ite $x491 (= t_aw_2_0_0 (+ aw_2_0 withdraw_amount_2)) $x550) (ite $x494 (= t_aw_2_0_1 (+ aw_2_1 withdraw_amount_2)) $x554) (ite $x497 (= t_aw_2_0_2 (+ aw_2_2 withdraw_amount_2)) $x558))))
 (let (($x567 (and (and (= t_w_2_0 (- w_2 withdraw_amount_2)) $x560) true $x566)))
 (let (($x517 (= w_3 w_2)))
 (let (($x522 (and $x517 $x506 $x521)))
 (let (($x499 (or $x497 (= t_myBalances_2_0_2 myBalances_2_2))))
 (let (($x496 (or $x494 (= t_myBalances_2_0_1 myBalances_2_1))))
 (let (($x493 (or $x491 (= t_myBalances_2_0_0 myBalances_2_0))))
 (let (($x500 (and $x493 $x496 $x499)))
 (let (($x486 (and (distinct xa_2 2) true)))
 (let (($x541 (or $x486 (= t_myBalances_2_0_2 (- myBalances_2_2 withdraw_amount_2)))))
 (let (($x482 (and (distinct xa_2 1) true)))
 (let (($x538 (or $x482 (= t_myBalances_2_0_1 (- myBalances_2_1 withdraw_amount_2)))))
 (let (($x478 (and (distinct xa_2 0) true)))
 (let (($x535 (or $x478 (= t_myBalances_2_0_0 (- myBalances_2_0 withdraw_amount_2)))))
 (let (($x569 (and (and (and $x535 $x538 $x541) $x500) (ite (not (>= withdraw_amount_2 0)) $x522 $x567))))
 (let (($x531 (and (or $x478 (<= withdraw_amount_2 myBalances_2_0)) (or $x482 (<= withdraw_amount_2 myBalances_2_1)) (or $x486 (<= withdraw_amount_2 myBalances_2_2)))))
 (let (($x574 (and (and (ite (not $x531) $x522 (and (and $x569 true $x566))) true $x566))))
 (let (($x577 (ite (not (= xn_2 0)) $x522 (and (ite (not (> withdraw_amount_2 0)) $x522 $x574)))))
 (let (($x514 (= f_2 withdraw)))
 (let (($x490 (and (or $x478 (= t_myBalances_2_0_0 (+ myBalances_2_0 xn_2))) (or $x482 (= t_myBalances_2_0_1 (+ myBalances_2_1 xn_2))) (or $x486 (= t_myBalances_2_0_2 (+ myBalances_2_2 xn_2))))))
 (let (($x475 (= f_2 deposit)))
 (let (($x581 (ite $x475 (and $x477 (and (and $x490 $x500) true (and $x502 $x506 $x510))) (ite $x514 $x577 (and $x477 (and $x502 $x506 $x521))))))
 (let (($x472 (>= aw_2_2 0)))
 (let (($x471 (>= aw_2_1 0)))
 (let (($x470 (>= aw_2_0 0)))
 (let (($x473 (and $x470 $x471 $x472)))
 (and (and (>= xa_2 0) (<= xa_2 2) (>= xn_2 0)) $x473 (>= block_num_3 block_num_2) $x581))))))))))))))))))))))))))))))))))))))))))))))))))))
(assert
 (let (($x708 (= myBalances_3_2 myBalances_4_2)))
 (let (($x707 (= myBalances_3_1 myBalances_4_1)))
 (let (($x706 (= myBalances_3_0 myBalances_4_0)))
 (let (($x709 (and $x706 $x707 $x708)))
 (let (($x693 (= aw_4_2 aw_3_2)))
 (let (($x692 (= aw_4_1 aw_3_1)))
 (let (($x691 (= aw_4_0 aw_3_0)))
 (let (($x694 (and $x691 $x692 $x693)))
 (let (($x690 (= w_4 t_w_3_0)))
 (let (($x665 (= t_w_3_0 (+ w_3 xn_3))))
 (let (($x697 (= t_myBalances_3_0_2 myBalances_4_2)))
 (let (($x696 (= t_myBalances_3_0_1 myBalances_4_1)))
 (let (($x695 (= t_myBalances_3_0_0 myBalances_4_0)))
 (let (($x698 (and $x695 $x696 $x697)))
 (let (($x752 (= aw_4_2 t_aw_3_0_2)))
 (let (($x751 (= aw_4_1 t_aw_3_0_1)))
 (let (($x750 (= aw_4_0 t_aw_3_0_0)))
 (let (($x754 (and $x690 (and $x750 $x751 $x752) $x698)))
 (let (($x746 (= t_aw_3_0_2 aw_3_2)))
 (let (($x685 (= xa_3 2)))
 (let (($x742 (= t_aw_3_0_1 aw_3_1)))
 (let (($x682 (= xa_3 1)))
 (let (($x738 (= t_aw_3_0_0 aw_3_0)))
 (let (($x679 (= xa_3 0)))
 (let (($x748 (and (ite $x679 (= t_aw_3_0_0 (+ aw_3_0 withdraw_amount_3)) $x738) (ite $x682 (= t_aw_3_0_1 (+ aw_3_1 withdraw_amount_3)) $x742) (ite $x685 (= t_aw_3_0_2 (+ aw_3_2 withdraw_amount_3)) $x746))))
 (let (($x755 (and (and (= t_w_3_0 (- w_3 withdraw_amount_3)) $x748) true $x754)))
 (let (($x705 (= w_4 w_3)))
 (let (($x710 (and $x705 $x694 $x709)))
 (let (($x687 (or $x685 (= t_myBalances_3_0_2 myBalances_3_2))))
 (let (($x684 (or $x682 (= t_myBalances_3_0_1 myBalances_3_1))))
 (let (($x681 (or $x679 (= t_myBalances_3_0_0 myBalances_3_0))))
 (let (($x688 (and $x681 $x684 $x687)))
 (let (($x674 (and (distinct xa_3 2) true)))
 (let (($x729 (or $x674 (= t_myBalances_3_0_2 (- myBalances_3_2 withdraw_amount_3)))))
 (let (($x670 (and (distinct xa_3 1) true)))
 (let (($x726 (or $x670 (= t_myBalances_3_0_1 (- myBalances_3_1 withdraw_amount_3)))))
 (let (($x666 (and (distinct xa_3 0) true)))
 (let (($x723 (or $x666 (= t_myBalances_3_0_0 (- myBalances_3_0 withdraw_amount_3)))))
 (let (($x757 (and (and (and $x723 $x726 $x729) $x688) (ite (not (>= withdraw_amount_3 0)) $x710 $x755))))
 (let (($x719 (and (or $x666 (<= withdraw_amount_3 myBalances_3_0)) (or $x670 (<= withdraw_amount_3 myBalances_3_1)) (or $x674 (<= withdraw_amount_3 myBalances_3_2)))))
 (let (($x762 (and (and (ite (not $x719) $x710 (and (and $x757 true $x754))) true $x754))))
 (let (($x765 (ite (not (= xn_3 0)) $x710 (and (ite (not (> withdraw_amount_3 0)) $x710 $x762)))))
 (let (($x702 (= f_3 withdraw)))
 (let (($x678 (and (or $x666 (= t_myBalances_3_0_0 (+ myBalances_3_0 xn_3))) (or $x670 (= t_myBalances_3_0_1 (+ myBalances_3_1 xn_3))) (or $x674 (= t_myBalances_3_0_2 (+ myBalances_3_2 xn_3))))))
 (let (($x663 (= f_3 deposit)))
 (let (($x769 (ite $x663 (and $x665 (and (and $x678 $x688) true (and $x690 $x694 $x698))) (ite $x702 $x765 (and $x665 (and $x690 $x694 $x709))))))
 (let (($x660 (>= aw_3_2 0)))
 (let (($x659 (>= aw_3_1 0)))
 (let (($x658 (>= aw_3_0 0)))
 (let (($x661 (and $x658 $x659 $x660)))
 (and (and (>= xa_3 0) (<= xa_3 2) (>= xn_3 0)) $x661 (>= block_num_4 block_num_3) $x769))))))))))))))))))))))))))))))))))))))))))))))))))))
(assert
 (let (($x896 (= myBalances_4_2 myBalances_5_2)))
 (let (($x895 (= myBalances_4_1 myBalances_5_1)))
 (let (($x894 (= myBalances_4_0 myBalances_5_0)))
 (let (($x897 (and $x894 $x895 $x896)))
 (let (($x881 (= aw_5_2 aw_4_2)))
 (let (($x880 (= aw_5_1 aw_4_1)))
 (let (($x879 (= aw_5_0 aw_4_0)))
 (let (($x882 (and $x879 $x880 $x881)))
 (let (($x878 (= w_5 t_w_4_0)))
 (let (($x853 (= t_w_4_0 (+ w_4 xn_4))))
 (let (($x885 (= t_myBalances_4_0_2 myBalances_5_2)))
 (let (($x884 (= t_myBalances_4_0_1 myBalances_5_1)))
 (let (($x883 (= t_myBalances_4_0_0 myBalances_5_0)))
 (let (($x886 (and $x883 $x884 $x885)))
 (let (($x940 (= aw_5_2 t_aw_4_0_2)))
 (let (($x939 (= aw_5_1 t_aw_4_0_1)))
 (let (($x938 (= aw_5_0 t_aw_4_0_0)))
 (let (($x942 (and $x878 (and $x938 $x939 $x940) $x886)))
 (let (($x934 (= t_aw_4_0_2 aw_4_2)))
 (let (($x873 (= xa_4 2)))
 (let (($x930 (= t_aw_4_0_1 aw_4_1)))
 (let (($x870 (= xa_4 1)))
 (let (($x926 (= t_aw_4_0_0 aw_4_0)))
 (let (($x867 (= xa_4 0)))
 (let (($x936 (and (ite $x867 (= t_aw_4_0_0 (+ aw_4_0 withdraw_amount_4)) $x926) (ite $x870 (= t_aw_4_0_1 (+ aw_4_1 withdraw_amount_4)) $x930) (ite $x873 (= t_aw_4_0_2 (+ aw_4_2 withdraw_amount_4)) $x934))))
 (let (($x943 (and (and (= t_w_4_0 (- w_4 withdraw_amount_4)) $x936) true $x942)))
 (let (($x893 (= w_5 w_4)))
 (let (($x898 (and $x893 $x882 $x897)))
 (let (($x875 (or $x873 (= t_myBalances_4_0_2 myBalances_4_2))))
 (let (($x872 (or $x870 (= t_myBalances_4_0_1 myBalances_4_1))))
 (let (($x869 (or $x867 (= t_myBalances_4_0_0 myBalances_4_0))))
 (let (($x876 (and $x869 $x872 $x875)))
 (let (($x862 (and (distinct xa_4 2) true)))
 (let (($x917 (or $x862 (= t_myBalances_4_0_2 (- myBalances_4_2 withdraw_amount_4)))))
 (let (($x858 (and (distinct xa_4 1) true)))
 (let (($x914 (or $x858 (= t_myBalances_4_0_1 (- myBalances_4_1 withdraw_amount_4)))))
 (let (($x854 (and (distinct xa_4 0) true)))
 (let (($x911 (or $x854 (= t_myBalances_4_0_0 (- myBalances_4_0 withdraw_amount_4)))))
 (let (($x945 (and (and (and $x911 $x914 $x917) $x876) (ite (not (>= withdraw_amount_4 0)) $x898 $x943))))
 (let (($x907 (and (or $x854 (<= withdraw_amount_4 myBalances_4_0)) (or $x858 (<= withdraw_amount_4 myBalances_4_1)) (or $x862 (<= withdraw_amount_4 myBalances_4_2)))))
 (let (($x950 (and (and (ite (not $x907) $x898 (and (and $x945 true $x942))) true $x942))))
 (let (($x953 (ite (not (= xn_4 0)) $x898 (and (ite (not (> withdraw_amount_4 0)) $x898 $x950)))))
 (let (($x890 (= f_4 withdraw)))
 (let (($x866 (and (or $x854 (= t_myBalances_4_0_0 (+ myBalances_4_0 xn_4))) (or $x858 (= t_myBalances_4_0_1 (+ myBalances_4_1 xn_4))) (or $x862 (= t_myBalances_4_0_2 (+ myBalances_4_2 xn_4))))))
 (let (($x851 (= f_4 deposit)))
 (let (($x957 (ite $x851 (and $x853 (and (and $x866 $x876) true (and $x878 $x882 $x886))) (ite $x890 $x953 (and $x853 (and $x878 $x882 $x897))))))
 (let (($x848 (>= aw_4_2 0)))
 (let (($x847 (>= aw_4_1 0)))
 (let (($x846 (>= aw_4_0 0)))
 (let (($x849 (and $x846 $x847 $x848)))
 (and (and (>= xa_4 0) (<= xa_4 2) (>= xn_4 0)) $x849 (>= block_num_5 block_num_4) $x957))))))))))))))))))))))))))))))))))))))))))))))))))))
(assert
 (let (($x1084 (= myBalances_5_2 myBalances_6_2)))
 (let (($x1083 (= myBalances_5_1 myBalances_6_1)))
 (let (($x1082 (= myBalances_5_0 myBalances_6_0)))
 (let (($x1085 (and $x1082 $x1083 $x1084)))
 (let (($x1069 (= aw_6_2 aw_5_2)))
 (let (($x1068 (= aw_6_1 aw_5_1)))
 (let (($x1067 (= aw_6_0 aw_5_0)))
 (let (($x1070 (and $x1067 $x1068 $x1069)))
 (let (($x1066 (= w_6 t_w_5_0)))
 (let (($x1041 (= t_w_5_0 (+ w_5 xn_5))))
 (let (($x1073 (= t_myBalances_5_0_2 myBalances_6_2)))
 (let (($x1072 (= t_myBalances_5_0_1 myBalances_6_1)))
 (let (($x1071 (= t_myBalances_5_0_0 myBalances_6_0)))
 (let (($x1074 (and $x1071 $x1072 $x1073)))
 (let (($x1128 (= aw_6_2 t_aw_5_0_2)))
 (let (($x1127 (= aw_6_1 t_aw_5_0_1)))
 (let (($x1126 (= aw_6_0 t_aw_5_0_0)))
 (let (($x1130 (and $x1066 (and $x1126 $x1127 $x1128) $x1074)))
 (let (($x1122 (= t_aw_5_0_2 aw_5_2)))
 (let (($x1061 (= xa_5 2)))
 (let (($x1118 (= t_aw_5_0_1 aw_5_1)))
 (let (($x1058 (= xa_5 1)))
 (let (($x1114 (= t_aw_5_0_0 aw_5_0)))
 (let (($x1055 (= xa_5 0)))
 (let (($x1124 (and (ite $x1055 (= t_aw_5_0_0 (+ aw_5_0 withdraw_amount_5)) $x1114) (ite $x1058 (= t_aw_5_0_1 (+ aw_5_1 withdraw_amount_5)) $x1118) (ite $x1061 (= t_aw_5_0_2 (+ aw_5_2 withdraw_amount_5)) $x1122))))
 (let (($x1131 (and (and (= t_w_5_0 (- w_5 withdraw_amount_5)) $x1124) true $x1130)))
 (let (($x1081 (= w_6 w_5)))
 (let (($x1086 (and $x1081 $x1070 $x1085)))
 (let (($x1063 (or $x1061 (= t_myBalances_5_0_2 myBalances_5_2))))
 (let (($x1060 (or $x1058 (= t_myBalances_5_0_1 myBalances_5_1))))
 (let (($x1057 (or $x1055 (= t_myBalances_5_0_0 myBalances_5_0))))
 (let (($x1064 (and $x1057 $x1060 $x1063)))
 (let (($x1050 (and (distinct xa_5 2) true)))
 (let (($x1105 (or $x1050 (= t_myBalances_5_0_2 (- myBalances_5_2 withdraw_amount_5)))))
 (let (($x1046 (and (distinct xa_5 1) true)))
 (let (($x1102 (or $x1046 (= t_myBalances_5_0_1 (- myBalances_5_1 withdraw_amount_5)))))
 (let (($x1042 (and (distinct xa_5 0) true)))
 (let (($x1099 (or $x1042 (= t_myBalances_5_0_0 (- myBalances_5_0 withdraw_amount_5)))))
 (let (($x1133 (and (and (and $x1099 $x1102 $x1105) $x1064) (ite (not (>= withdraw_amount_5 0)) $x1086 $x1131))))
 (let (($x1095 (and (or $x1042 (<= withdraw_amount_5 myBalances_5_0)) (or $x1046 (<= withdraw_amount_5 myBalances_5_1)) (or $x1050 (<= withdraw_amount_5 myBalances_5_2)))))
 (let (($x1138 (and (and (ite (not $x1095) $x1086 (and (and $x1133 true $x1130))) true $x1130))))
 (let (($x1141 (ite (not (= xn_5 0)) $x1086 (and (ite (not (> withdraw_amount_5 0)) $x1086 $x1138)))))
 (let (($x1078 (= f_5 withdraw)))
 (let (($x1054 (and (or $x1042 (= t_myBalances_5_0_0 (+ myBalances_5_0 xn_5))) (or $x1046 (= t_myBalances_5_0_1 (+ myBalances_5_1 xn_5))) (or $x1050 (= t_myBalances_5_0_2 (+ myBalances_5_2 xn_5))))))
 (let (($x1039 (= f_5 deposit)))
 (let (($x1145 (ite $x1039 (and $x1041 (and (and $x1054 $x1064) true (and $x1066 $x1070 $x1074))) (ite $x1078 $x1141 (and $x1041 (and $x1066 $x1070 $x1085))))))
 (let (($x1036 (>= aw_5_2 0)))
 (let (($x1035 (>= aw_5_1 0)))
 (let (($x1034 (>= aw_5_0 0)))
 (let (($x1037 (and $x1034 $x1035 $x1036)))
 (and (and (>= xa_5 0) (<= xa_5 2) (>= xn_5 0)) $x1037 (>= block_num_6 block_num_5) $x1145))))))))))))))))))))))))))))))))))))))))))))))))))))
(assert
 (let (($x1272 (= myBalances_6_2 myBalances_7_2)))
 (let (($x1271 (= myBalances_6_1 myBalances_7_1)))
 (let (($x1270 (= myBalances_6_0 myBalances_7_0)))
 (let (($x1273 (and $x1270 $x1271 $x1272)))
 (let (($x1257 (= aw_7_2 aw_6_2)))
 (let (($x1256 (= aw_7_1 aw_6_1)))
 (let (($x1255 (= aw_7_0 aw_6_0)))
 (let (($x1258 (and $x1255 $x1256 $x1257)))
 (let (($x1254 (= w_7 t_w_6_0)))
 (let (($x1229 (= t_w_6_0 (+ w_6 xn_6))))
 (let (($x1261 (= t_myBalances_6_0_2 myBalances_7_2)))
 (let (($x1260 (= t_myBalances_6_0_1 myBalances_7_1)))
 (let (($x1259 (= t_myBalances_6_0_0 myBalances_7_0)))
 (let (($x1262 (and $x1259 $x1260 $x1261)))
 (let (($x1316 (= aw_7_2 t_aw_6_0_2)))
 (let (($x1315 (= aw_7_1 t_aw_6_0_1)))
 (let (($x1314 (= aw_7_0 t_aw_6_0_0)))
 (let (($x1318 (and $x1254 (and $x1314 $x1315 $x1316) $x1262)))
 (let (($x1310 (= t_aw_6_0_2 aw_6_2)))
 (let (($x1249 (= xa_6 2)))
 (let (($x1306 (= t_aw_6_0_1 aw_6_1)))
 (let (($x1246 (= xa_6 1)))
 (let (($x1302 (= t_aw_6_0_0 aw_6_0)))
 (let (($x1243 (= xa_6 0)))
 (let (($x1312 (and (ite $x1243 (= t_aw_6_0_0 (+ aw_6_0 withdraw_amount_6)) $x1302) (ite $x1246 (= t_aw_6_0_1 (+ aw_6_1 withdraw_amount_6)) $x1306) (ite $x1249 (= t_aw_6_0_2 (+ aw_6_2 withdraw_amount_6)) $x1310))))
 (let (($x1319 (and (and (= t_w_6_0 (- w_6 withdraw_amount_6)) $x1312) true $x1318)))
 (let (($x1269 (= w_7 w_6)))
 (let (($x1274 (and $x1269 $x1258 $x1273)))
 (let (($x1251 (or $x1249 (= t_myBalances_6_0_2 myBalances_6_2))))
 (let (($x1248 (or $x1246 (= t_myBalances_6_0_1 myBalances_6_1))))
 (let (($x1245 (or $x1243 (= t_myBalances_6_0_0 myBalances_6_0))))
 (let (($x1252 (and $x1245 $x1248 $x1251)))
 (let (($x1238 (and (distinct xa_6 2) true)))
 (let (($x1293 (or $x1238 (= t_myBalances_6_0_2 (- myBalances_6_2 withdraw_amount_6)))))
 (let (($x1234 (and (distinct xa_6 1) true)))
 (let (($x1290 (or $x1234 (= t_myBalances_6_0_1 (- myBalances_6_1 withdraw_amount_6)))))
 (let (($x1230 (and (distinct xa_6 0) true)))
 (let (($x1287 (or $x1230 (= t_myBalances_6_0_0 (- myBalances_6_0 withdraw_amount_6)))))
 (let (($x1321 (and (and (and $x1287 $x1290 $x1293) $x1252) (ite (not (>= withdraw_amount_6 0)) $x1274 $x1319))))
 (let (($x1283 (and (or $x1230 (<= withdraw_amount_6 myBalances_6_0)) (or $x1234 (<= withdraw_amount_6 myBalances_6_1)) (or $x1238 (<= withdraw_amount_6 myBalances_6_2)))))
 (let (($x1326 (and (and (ite (not $x1283) $x1274 (and (and $x1321 true $x1318))) true $x1318))))
 (let (($x1329 (ite (not (= xn_6 0)) $x1274 (and (ite (not (> withdraw_amount_6 0)) $x1274 $x1326)))))
 (let (($x1266 (= f_6 withdraw)))
 (let (($x1242 (and (or $x1230 (= t_myBalances_6_0_0 (+ myBalances_6_0 xn_6))) (or $x1234 (= t_myBalances_6_0_1 (+ myBalances_6_1 xn_6))) (or $x1238 (= t_myBalances_6_0_2 (+ myBalances_6_2 xn_6))))))
 (let (($x1227 (= f_6 deposit)))
 (let (($x1333 (ite $x1227 (and $x1229 (and (and $x1242 $x1252) true (and $x1254 $x1258 $x1262))) (ite $x1266 $x1329 (and $x1229 (and $x1254 $x1258 $x1273))))))
 (let (($x1224 (>= aw_6_2 0)))
 (let (($x1223 (>= aw_6_1 0)))
 (let (($x1222 (>= aw_6_0 0)))
 (let (($x1225 (and $x1222 $x1223 $x1224)))
 (and (and (>= xa_6 0) (<= xa_6 2) (>= xn_6 0)) $x1225 (>= block_num_7 block_num_6) $x1333))))))))))))))))))))))))))))))))))))))))))))))))))))
(assert
 (let (($x1460 (= myBalances_7_2 myBalances_8_2)))
 (let (($x1459 (= myBalances_7_1 myBalances_8_1)))
 (let (($x1458 (= myBalances_7_0 myBalances_8_0)))
 (let (($x1461 (and $x1458 $x1459 $x1460)))
 (let (($x1445 (= aw_8_2 aw_7_2)))
 (let (($x1444 (= aw_8_1 aw_7_1)))
 (let (($x1443 (= aw_8_0 aw_7_0)))
 (let (($x1446 (and $x1443 $x1444 $x1445)))
 (let (($x1442 (= w_8 t_w_7_0)))
 (let (($x1417 (= t_w_7_0 (+ w_7 xn_7))))
 (let (($x1449 (= t_myBalances_7_0_2 myBalances_8_2)))
 (let (($x1448 (= t_myBalances_7_0_1 myBalances_8_1)))
 (let (($x1447 (= t_myBalances_7_0_0 myBalances_8_0)))
 (let (($x1450 (and $x1447 $x1448 $x1449)))
 (let (($x1504 (= aw_8_2 t_aw_7_0_2)))
 (let (($x1503 (= aw_8_1 t_aw_7_0_1)))
 (let (($x1502 (= aw_8_0 t_aw_7_0_0)))
 (let (($x1506 (and $x1442 (and $x1502 $x1503 $x1504) $x1450)))
 (let (($x1498 (= t_aw_7_0_2 aw_7_2)))
 (let (($x1437 (= xa_7 2)))
 (let (($x1494 (= t_aw_7_0_1 aw_7_1)))
 (let (($x1434 (= xa_7 1)))
 (let (($x1490 (= t_aw_7_0_0 aw_7_0)))
 (let (($x1431 (= xa_7 0)))
 (let (($x1500 (and (ite $x1431 (= t_aw_7_0_0 (+ aw_7_0 withdraw_amount_7)) $x1490) (ite $x1434 (= t_aw_7_0_1 (+ aw_7_1 withdraw_amount_7)) $x1494) (ite $x1437 (= t_aw_7_0_2 (+ aw_7_2 withdraw_amount_7)) $x1498))))
 (let (($x1507 (and (and (= t_w_7_0 (- w_7 withdraw_amount_7)) $x1500) true $x1506)))
 (let (($x1457 (= w_8 w_7)))
 (let (($x1462 (and $x1457 $x1446 $x1461)))
 (let (($x1439 (or $x1437 (= t_myBalances_7_0_2 myBalances_7_2))))
 (let (($x1436 (or $x1434 (= t_myBalances_7_0_1 myBalances_7_1))))
 (let (($x1433 (or $x1431 (= t_myBalances_7_0_0 myBalances_7_0))))
 (let (($x1440 (and $x1433 $x1436 $x1439)))
 (let (($x1426 (and (distinct xa_7 2) true)))
 (let (($x1481 (or $x1426 (= t_myBalances_7_0_2 (- myBalances_7_2 withdraw_amount_7)))))
 (let (($x1422 (and (distinct xa_7 1) true)))
 (let (($x1478 (or $x1422 (= t_myBalances_7_0_1 (- myBalances_7_1 withdraw_amount_7)))))
 (let (($x1418 (and (distinct xa_7 0) true)))
 (let (($x1475 (or $x1418 (= t_myBalances_7_0_0 (- myBalances_7_0 withdraw_amount_7)))))
 (let (($x1509 (and (and (and $x1475 $x1478 $x1481) $x1440) (ite (not (>= withdraw_amount_7 0)) $x1462 $x1507))))
 (let (($x1471 (and (or $x1418 (<= withdraw_amount_7 myBalances_7_0)) (or $x1422 (<= withdraw_amount_7 myBalances_7_1)) (or $x1426 (<= withdraw_amount_7 myBalances_7_2)))))
 (let (($x1514 (and (and (ite (not $x1471) $x1462 (and (and $x1509 true $x1506))) true $x1506))))
 (let (($x1517 (ite (not (= xn_7 0)) $x1462 (and (ite (not (> withdraw_amount_7 0)) $x1462 $x1514)))))
 (let (($x1454 (= f_7 withdraw)))
 (let (($x1430 (and (or $x1418 (= t_myBalances_7_0_0 (+ myBalances_7_0 xn_7))) (or $x1422 (= t_myBalances_7_0_1 (+ myBalances_7_1 xn_7))) (or $x1426 (= t_myBalances_7_0_2 (+ myBalances_7_2 xn_7))))))
 (let (($x1415 (= f_7 deposit)))
 (let (($x1521 (ite $x1415 (and $x1417 (and (and $x1430 $x1440) true (and $x1442 $x1446 $x1450))) (ite $x1454 $x1517 (and $x1417 (and $x1442 $x1446 $x1461))))))
 (let (($x1412 (>= aw_7_2 0)))
 (let (($x1411 (>= aw_7_1 0)))
 (let (($x1410 (>= aw_7_0 0)))
 (let (($x1413 (and $x1410 $x1411 $x1412)))
 (and (and (>= xa_7 0) (<= xa_7 2) (>= xn_7 0)) $x1413 (>= block_num_8 block_num_7) $x1521))))))))))))))))))))))))))))))))))))))))))))))))))))
(assert
 (let (($x1648 (= myBalances_8_2 myBalances_9_2)))
 (let (($x1647 (= myBalances_8_1 myBalances_9_1)))
 (let (($x1646 (= myBalances_8_0 myBalances_9_0)))
 (let (($x1649 (and $x1646 $x1647 $x1648)))
 (let (($x1633 (= aw_9_2 aw_8_2)))
 (let (($x1632 (= aw_9_1 aw_8_1)))
 (let (($x1631 (= aw_9_0 aw_8_0)))
 (let (($x1634 (and $x1631 $x1632 $x1633)))
 (let (($x1630 (= w_9 t_w_8_0)))
 (let (($x1605 (= t_w_8_0 (+ w_8 xn_8))))
 (let (($x1637 (= t_myBalances_8_0_2 myBalances_9_2)))
 (let (($x1636 (= t_myBalances_8_0_1 myBalances_9_1)))
 (let (($x1635 (= t_myBalances_8_0_0 myBalances_9_0)))
 (let (($x1638 (and $x1635 $x1636 $x1637)))
 (let (($x1692 (= aw_9_2 t_aw_8_0_2)))
 (let (($x1691 (= aw_9_1 t_aw_8_0_1)))
 (let (($x1690 (= aw_9_0 t_aw_8_0_0)))
 (let (($x1694 (and $x1630 (and $x1690 $x1691 $x1692) $x1638)))
 (let (($x1686 (= t_aw_8_0_2 aw_8_2)))
 (let (($x1625 (= xa_8 2)))
 (let (($x1682 (= t_aw_8_0_1 aw_8_1)))
 (let (($x1622 (= xa_8 1)))
 (let (($x1678 (= t_aw_8_0_0 aw_8_0)))
 (let (($x1619 (= xa_8 0)))
 (let (($x1688 (and (ite $x1619 (= t_aw_8_0_0 (+ aw_8_0 withdraw_amount_8)) $x1678) (ite $x1622 (= t_aw_8_0_1 (+ aw_8_1 withdraw_amount_8)) $x1682) (ite $x1625 (= t_aw_8_0_2 (+ aw_8_2 withdraw_amount_8)) $x1686))))
 (let (($x1695 (and (and (= t_w_8_0 (- w_8 withdraw_amount_8)) $x1688) true $x1694)))
 (let (($x1645 (= w_9 w_8)))
 (let (($x1650 (and $x1645 $x1634 $x1649)))
 (let (($x1627 (or $x1625 (= t_myBalances_8_0_2 myBalances_8_2))))
 (let (($x1624 (or $x1622 (= t_myBalances_8_0_1 myBalances_8_1))))
 (let (($x1621 (or $x1619 (= t_myBalances_8_0_0 myBalances_8_0))))
 (let (($x1628 (and $x1621 $x1624 $x1627)))
 (let (($x1614 (and (distinct xa_8 2) true)))
 (let (($x1669 (or $x1614 (= t_myBalances_8_0_2 (- myBalances_8_2 withdraw_amount_8)))))
 (let (($x1610 (and (distinct xa_8 1) true)))
 (let (($x1666 (or $x1610 (= t_myBalances_8_0_1 (- myBalances_8_1 withdraw_amount_8)))))
 (let (($x1606 (and (distinct xa_8 0) true)))
 (let (($x1663 (or $x1606 (= t_myBalances_8_0_0 (- myBalances_8_0 withdraw_amount_8)))))
 (let (($x1697 (and (and (and $x1663 $x1666 $x1669) $x1628) (ite (not (>= withdraw_amount_8 0)) $x1650 $x1695))))
 (let (($x1659 (and (or $x1606 (<= withdraw_amount_8 myBalances_8_0)) (or $x1610 (<= withdraw_amount_8 myBalances_8_1)) (or $x1614 (<= withdraw_amount_8 myBalances_8_2)))))
 (let (($x1702 (and (and (ite (not $x1659) $x1650 (and (and $x1697 true $x1694))) true $x1694))))
 (let (($x1705 (ite (not (= xn_8 0)) $x1650 (and (ite (not (> withdraw_amount_8 0)) $x1650 $x1702)))))
 (let (($x1642 (= f_8 withdraw)))
 (let (($x1618 (and (or $x1606 (= t_myBalances_8_0_0 (+ myBalances_8_0 xn_8))) (or $x1610 (= t_myBalances_8_0_1 (+ myBalances_8_1 xn_8))) (or $x1614 (= t_myBalances_8_0_2 (+ myBalances_8_2 xn_8))))))
 (let (($x1603 (= f_8 deposit)))
 (let (($x1709 (ite $x1603 (and $x1605 (and (and $x1618 $x1628) true (and $x1630 $x1634 $x1638))) (ite $x1642 $x1705 (and $x1605 (and $x1630 $x1634 $x1649))))))
 (let (($x1600 (>= aw_8_2 0)))
 (let (($x1599 (>= aw_8_1 0)))
 (let (($x1598 (>= aw_8_0 0)))
 (let (($x1601 (and $x1598 $x1599 $x1600)))
 (and (and (>= xa_8 0) (<= xa_8 2) (>= xn_8 0)) $x1601 (>= block_num_9 block_num_8) $x1709))))))))))))))))))))))))))))))))))))))))))))))))))))
(assert
 (let (($x1836 (= myBalances_9_2 myBalances_10_2)))
 (let (($x1835 (= myBalances_9_1 myBalances_10_1)))
 (let (($x1834 (= myBalances_9_0 myBalances_10_0)))
 (let (($x1837 (and $x1834 $x1835 $x1836)))
 (let (($x1821 (= aw_10_2 aw_9_2)))
 (let (($x1820 (= aw_10_1 aw_9_1)))
 (let (($x1819 (= aw_10_0 aw_9_0)))
 (let (($x1822 (and $x1819 $x1820 $x1821)))
 (let (($x1818 (= w_10 t_w_9_0)))
 (let (($x1793 (= t_w_9_0 (+ w_9 xn_9))))
 (let (($x1825 (= t_myBalances_9_0_2 myBalances_10_2)))
 (let (($x1824 (= t_myBalances_9_0_1 myBalances_10_1)))
 (let (($x1823 (= t_myBalances_9_0_0 myBalances_10_0)))
 (let (($x1826 (and $x1823 $x1824 $x1825)))
 (let (($x1880 (= aw_10_2 t_aw_9_0_2)))
 (let (($x1879 (= aw_10_1 t_aw_9_0_1)))
 (let (($x1878 (= aw_10_0 t_aw_9_0_0)))
 (let (($x1882 (and $x1818 (and $x1878 $x1879 $x1880) $x1826)))
 (let (($x1874 (= t_aw_9_0_2 aw_9_2)))
 (let (($x1813 (= xa_9 2)))
 (let (($x1870 (= t_aw_9_0_1 aw_9_1)))
 (let (($x1810 (= xa_9 1)))
 (let (($x1866 (= t_aw_9_0_0 aw_9_0)))
 (let (($x1807 (= xa_9 0)))
 (let (($x1876 (and (ite $x1807 (= t_aw_9_0_0 (+ aw_9_0 withdraw_amount_9)) $x1866) (ite $x1810 (= t_aw_9_0_1 (+ aw_9_1 withdraw_amount_9)) $x1870) (ite $x1813 (= t_aw_9_0_2 (+ aw_9_2 withdraw_amount_9)) $x1874))))
 (let (($x1883 (and (and (= t_w_9_0 (- w_9 withdraw_amount_9)) $x1876) true $x1882)))
 (let (($x1833 (= w_10 w_9)))
 (let (($x1838 (and $x1833 $x1822 $x1837)))
 (let (($x1815 (or $x1813 (= t_myBalances_9_0_2 myBalances_9_2))))
 (let (($x1812 (or $x1810 (= t_myBalances_9_0_1 myBalances_9_1))))
 (let (($x1809 (or $x1807 (= t_myBalances_9_0_0 myBalances_9_0))))
 (let (($x1816 (and $x1809 $x1812 $x1815)))
 (let (($x1802 (and (distinct xa_9 2) true)))
 (let (($x1857 (or $x1802 (= t_myBalances_9_0_2 (- myBalances_9_2 withdraw_amount_9)))))
 (let (($x1798 (and (distinct xa_9 1) true)))
 (let (($x1854 (or $x1798 (= t_myBalances_9_0_1 (- myBalances_9_1 withdraw_amount_9)))))
 (let (($x1794 (and (distinct xa_9 0) true)))
 (let (($x1851 (or $x1794 (= t_myBalances_9_0_0 (- myBalances_9_0 withdraw_amount_9)))))
 (let (($x1885 (and (and (and $x1851 $x1854 $x1857) $x1816) (ite (not (>= withdraw_amount_9 0)) $x1838 $x1883))))
 (let (($x1847 (and (or $x1794 (<= withdraw_amount_9 myBalances_9_0)) (or $x1798 (<= withdraw_amount_9 myBalances_9_1)) (or $x1802 (<= withdraw_amount_9 myBalances_9_2)))))
 (let (($x1890 (and (and (ite (not $x1847) $x1838 (and (and $x1885 true $x1882))) true $x1882))))
 (let (($x1893 (ite (not (= xn_9 0)) $x1838 (and (ite (not (> withdraw_amount_9 0)) $x1838 $x1890)))))
 (let (($x1830 (= f_9 withdraw)))
 (let (($x1806 (and (or $x1794 (= t_myBalances_9_0_0 (+ myBalances_9_0 xn_9))) (or $x1798 (= t_myBalances_9_0_1 (+ myBalances_9_1 xn_9))) (or $x1802 (= t_myBalances_9_0_2 (+ myBalances_9_2 xn_9))))))
 (let (($x1791 (= f_9 deposit)))
 (let (($x1897 (ite $x1791 (and $x1793 (and (and $x1806 $x1816) true (and $x1818 $x1822 $x1826))) (ite $x1830 $x1893 (and $x1793 (and $x1818 $x1822 $x1837))))))
 (let (($x1788 (>= aw_9_2 0)))
 (let (($x1787 (>= aw_9_1 0)))
 (let (($x1786 (>= aw_9_0 0)))
 (let (($x1789 (and $x1786 $x1787 $x1788)))
 (and (and (>= xa_9 0) (<= xa_9 2) (>= xn_9 0)) $x1789 (>= block_num_10 block_num_9) $x1897))))))))))))))))))))))))))))))))))))))))))))))))))))
(assert
 (let (($x2082 (exists ((xa_q Int) )(let (($x2135 (forall ((xn_q0 Int) (f_q0 Proc) (wq0 Int) (awq0_0 Int) (awq0_1 Int) (awq0_2 Int) (t_wq0_0 Int) (t_awq0_0_0 Int) (t_awq0_0_1 Int) (t_awq0_0_2 Int) (withdraw_amount0_q Int) (myBalancesq0_0 Int) (myBalancesq0_1 Int) (myBalancesq0_2 Int) (t_myBalancesq0_0_0 Int) (t_myBalancesq0_0_1 Int) (t_myBalancesq0_0_2 Int) )(let (($x1986 (and (distinct xa_q 2) true)))
 (let (($x1988 (and (distinct xa_q 1) true)))
 (let (($x1990 (and (distinct xa_q 0) true)))
 (let (($x2165 (and (or $x1990 (not (>= (- awq0_0 aw_3_0) myBalances_3_0))) (or $x1988 (not (>= (- awq0_1 aw_3_1) myBalances_3_1))) (or $x1986 (not (>= (- awq0_2 aw_3_2) myBalances_3_2))))))
 (let (($x2393 (= myBalances_3_2 myBalancesq0_2)))
 (let (($x2394 (= myBalances_3_1 myBalancesq0_1)))
 (let (($x2395 (= myBalances_3_0 myBalancesq0_0)))
 (let (($x2396 (and $x2395 $x2394 $x2393)))
 (let (($x2397 (= awq0_2 aw_3_2)))
 (let (($x2398 (= awq0_1 aw_3_1)))
 (let (($x2399 (= awq0_0 aw_3_0)))
 (let (($x2400 (and $x2399 $x2398 $x2397)))
 (let (($x2144 (= wq0 t_wq0_0)))
 (let (($x2403 (= t_wq0_0 (+ w_3 xn_q0))))
 (let (($x2149 (= t_myBalancesq0_0_2 myBalancesq0_2)))
 (let (($x2150 (= t_myBalancesq0_0_1 myBalancesq0_1)))
 (let (($x2151 (= t_myBalancesq0_0_0 myBalancesq0_0)))
 (let (($x2152 (and $x2151 $x2150 $x2149)))
 (let (($x2157 (and $x2144 (and (= awq0_0 t_awq0_0_0) (= awq0_1 t_awq0_0_1) (= awq0_2 t_awq0_0_2)) $x2152)))
 (let (($x2362 (and (ite (= xa_q 0) (= t_awq0_0_0 (+ aw_3_0 withdraw_amount0_q)) (= t_awq0_0_0 aw_3_0)) (ite (= xa_q 1) (= t_awq0_0_1 (+ aw_3_1 withdraw_amount0_q)) (= t_awq0_0_1 aw_3_1)) (ite (= xa_q 2) (= t_awq0_0_2 (+ aw_3_2 withdraw_amount0_q)) (= t_awq0_0_2 aw_3_2)))))
 (let (($x2422 (= wq0 w_3)))
 (let (($x2423 (and $x2422 $x2400 $x2396)))
 (let (($x2177 (>= withdraw_amount0_q 0)))
 (let (($x2178 (not $x2177)))
 (let (($x1993 (= xa_q 2)))
 (let (($x2336 (or $x1993 (= t_myBalancesq0_0_2 myBalances_3_2))))
 (let (($x1995 (= xa_q 1)))
 (let (($x2341 (or $x1995 (= t_myBalancesq0_0_1 myBalances_3_1))))
 (let (($x1997 (= xa_q 0)))
 (let (($x2342 (or $x1997 (= t_myBalancesq0_0_0 myBalances_3_0))))
 (let (($x2326 (and $x2342 $x2341 $x2336)))
 (let (($x2297 (and (or $x1990 (= t_myBalancesq0_0_0 (- myBalances_3_0 withdraw_amount0_q))) (or $x1988 (= t_myBalancesq0_0_1 (- myBalances_3_1 withdraw_amount0_q))) (or $x1986 (= t_myBalancesq0_0_2 (- myBalances_3_2 withdraw_amount0_q))))))
 (let (($x2309 (and (and $x2297 $x2326) (ite $x2178 $x2423 (and (and (= t_wq0_0 (- w_3 withdraw_amount0_q)) $x2362) true $x2157)))))
 (let (($x2343 (and (or $x1990 (<= withdraw_amount0_q myBalances_3_0)) (or $x1988 (<= withdraw_amount0_q myBalances_3_1)) (or $x1986 (<= withdraw_amount0_q myBalances_3_2)))))
 (let (($x2347 (and (and (ite (not $x2343) $x2423 (and (and $x2309 true $x2157))) true $x2157))))
 (let (($x2213 (not (> withdraw_amount0_q 0))))
 (let (($x2216 (= xn_q0 0)))
 (let (($x2217 (not $x2216)))
 (let (($x2219 (= f_q0 withdraw)))
 (let (($x2366 (ite $x2219 (ite $x2217 $x2423 (and (ite $x2213 $x2423 $x2347))) (and $x2403 (and $x2144 $x2400 $x2396)))))
 (let (($x2074 (and (or $x1990 (= t_myBalancesq0_0_0 (+ myBalances_3_0 xn_q0))) (or $x1988 (= t_myBalancesq0_0_1 (+ myBalances_3_1 xn_q0))) (or $x1986 (= t_myBalancesq0_0_2 (+ myBalances_3_2 xn_q0))))))
 (let (($x2235 (= f_q0 deposit)))
 (let (($x2078 (ite $x2235 (and $x2403 (and (and $x2074 $x2326) true (and $x2144 $x2400 $x2152))) $x2366)))
 (let (($x660 (>= aw_3_2 0)))
 (let (($x659 (>= aw_3_1 0)))
 (let (($x658 (>= aw_3_0 0)))
 (let (($x661 (and $x658 $x659 $x660)))
 (let (($x2237 (>= xn_q0 0)))
 (let (($x2044 (<= xa_q 2)))
 (let (($x2045 (>= xa_q 0)))
 (let (($x2046 (and $x2045 $x2044 $x2237)))
 (or (not (and $x2046 $x661 (>= block_num_3 block_num_3) $x2078)) $x2165)))))))))))))))))))))))))))))))))))))))))))))))))))))
 ))
 (let (($x2080 (and (or (and (distinct xa_q 0) true) (> myBalances_3_0 0)) (or (and (distinct xa_q 1) true) (> myBalances_3_1 0)) (or (and (distinct xa_q 2) true) (> myBalances_3_2 0)))))
 (let (($x2029 (<= xa_q 2)))
 (let (($x2030 (>= xa_q 0)))
 (let (($x2054 (and $x2030 $x2029)))
 (and $x2054 $x2080 $x2135)))))))
 ))
 (and $x2082)))
(check-sat)
